generators-olypicgames/olympicgames.sol
CPLEX 12.5.0.0: optimal integer solution; objective 14
3912 MIP simplex iterations
352 branch-and-bound nodes
x [*,*] (tr)
:  baseball crossCountry discus football hundred javelin thousand twohundred :=
1      0          1         0       1        0       0       0         0
2      0          0         0       1        0       0       0         1
3      0          0         0       0        0       1       1         0
4      1          0         1       0        0       0       0         1
5      1          0         1       0        0       0       0         0
6      0          0         0       1        0       1       0         0
7      1          0         1       0        0       0       0         0
8      0          0         0       1        0       1       0         0
9      1          0         0       0        1       0       0         0
10     0          0         0       0        1       0       1         0
;

